c [ 1 2 3 4 -5 6 7 8 9 -10 ]
c r=8.000 p0=0.080
p cnf 10 80
7 -1 5 0
-4 6 5 0
-7 1 -3 0
6 4 -10 0
3 9 4 0
1 3 -2 0
-4 -9 -5 0
-10 6 4 0
3 -10 4 0
-9 1 -7 0
-5 -6 10 0
9 -7 -4 0
-4 1 9 0
9 3 5 0
-4 -2 1 0
-5 -9 4 0
7 2 -8 0
1 10 3 0
-9 -3 8 0
-3 -4 1 0
-1 4 -2 0
-2 8 -3 0
2 -4 3 0
-2 -10 -7 0
4 10 9 0
-10 -4 6 0
-7 -5 10 0
6 5 -8 0
9 -8 -7 0
-1 7 5 0
-4 7 -10 0
6 -7 -2 0
4 3 -10 0
-4 8 -2 0
5 1 -7 0
8 3 -9 0
-3 10 8 0
10 2 -9 0
-10 -1 -7 0
-3 -8 6 0
2 5 -1 0
-7 -8 1 0
2 1 -5 0
4 10 1 0
9 7 -3 0
2 9 7 0
3 2 5 0
-1 9 5 0
-2 -10 -7 0
-7 -10 -2 0
-3 -5 8 0
-9 -1 7 0
8 -5 7 0
5 -1 3 0
5 -6 4 0
-5 -6 2 0
4 10 -5 0
-6 -1 3 0
-6 -4 2 0
-10 -7 -9 0
4 -2 -8 0
7 -2 8 0
5 -9 4 0
2 -6 -4 0
-2 9 6 0
-4 8 -3 0
-7 5 3 0
-5 -9 3 0
-1 7 3 0
2 -9 -4 0
7 -4 2 0
-9 7 10 0
9 3 -2 0
4 5 -3 0
-7 5 6 0
8 9 3 0
3 -2 4 0
-4 3 -8 0
2 6 -5 0
-6 2 -1 0
